r = [
0,69,225,146,276,107,165,16,25,108,55,268,223,137,292,106,45,73,2,178,213,292,242,189,66,189,0
];
p = [
0,5,16,3,20,13,2,26,23,1,30,24,7,29,1,20,19,12,25,24,16,5,3,2,19,15,0
];
e = [
0,17,14,11,14,19,15,15,20,17,13,3,10,13,7,5,17,15,18,12,15,15,19,4,9,20,0
];
d = [
0,112,273,174,296,133,199,45,53,148,103,310,243,166,331,149,89,104,27,220,259,312,271,216,91,217,332
];
d_bar = [
0,113,275,175,298,134,200,48,55,149,106,312,244,169,332,151,91,105,30,222,261,313,272,217,93,219,332
];
w = [
0,17,7,11,7,19,15,5,10,17,4.333333333,1.5,10,4.333333333,7,2.5,8.5,15,6,6,7.5,15,19,4,4.5,10,0
];
